(set-logic ALL)
(declare-var c (_ BitVec 32))
(declare-var n (_ BitVec 32))
(declare-var c! (_ BitVec 32))
(declare-var n! (_ BitVec 32))
(synth-fun inv-f((parameter0 (_ BitVec 32))(parameter1 (_ BitVec 32)))Bool) 
(constraint (=> (and (= c (_ bv0 32)) (bvsgt n (_ bv0 32)) )(inv-f c n )))
(constraint (=> (and (inv-f c n ) (or (and (and (bvsgt c n) (= c! (bvadd c (_ bv1 32))) ) (= n! n) ) (and (and (= c n) (= c! (_ bv1 32)) ) (= n! n) ) ) )(inv-f c! n! )))
(constraint (=> (inv-f c n )(and (or (= c n) (and (bvsge c (_ bv0 32)) (bvsle c n) ) ) (or (not (= c n)) (bvsgt n (_ bv4294967295 32)) ) )))
(check-synth)

